
Gurobi 8.1.0 (win64, Python) logging started 10/22/18 17:35:14

Academic license - for non-commercial use only
Read LP format model from file cloud.lp
Reading time = 0.01 seconds
: 2 rows, 2 columns, 4 nonzeros
Optimize a model with 2 rows, 2 columns and 4 nonzeros
Coefficient statistics:
  Matrix range     [4e+01, 4e+02]
  Objective range  [2e+03, 3e+03]
  Bounds range     [1e+02, 1e+02]
  RHS range        [1e+04, 6e+04]
Presolve time: 0.01s
Presolved: 2 rows, 2 columns, 4 nonzeros

Iteration    Objective       Primal Inf.    Dual Inf.      Time
       0    3.0000000e+32   1.171875e+30   3.000000e+02      0s
       2    5.2000000e+05   0.000000e+00   0.000000e+00      0s

Solved in 2 iterations and 0.03 seconds
Optimal objective  5.200000000e+05
Read LP format model from file cloud.lp
Reading time = 0.00 seconds
: 2 rows, 2 columns, 4 nonzeros
Optimize a model with 2 rows, 2 columns and 4 nonzeros
Coefficient statistics:
  Matrix range     [4e+01, 4e+02]
  Objective range  [2e+03, 3e+03]
  Bounds range     [1e+02, 1e+02]
  RHS range        [1e+04, 6e+04]
Presolve time: 0.04s
Presolved: 2 rows, 2 columns, 4 nonzeros

Iteration    Objective       Primal Inf.    Dual Inf.      Time
       0    3.0000000e+32   1.171875e+30   3.000000e+02      0s
       2    5.2000000e+05   0.000000e+00   0.000000e+00      0s

Solved in 2 iterations and 0.09 seconds
Optimal objective  5.200000000e+05

    Variable            X 
-------------------------
          xm           50 
          xs          125 
